p cnf 65 128
-1 63 -2 0 
-1 64 -4 0 
-2 -3 64 -4 0 
-4 -5 19 -6 -7 -8 65 -12 0 
-5 19 -4 65 -12 0 
-3 64 -4 0 
-4 -3 65 -12 0 
-9 -10 34 41 58 63 -2 0 
-9 -11 -12 63 -2 0 
-6 -1 -12 -13 -4 63 -2 0 
-3 63 -2 0 
-14 63 -2 0 
-15 63 -2 0 
-16 -7 63 -2 0 
-17 54 -18 39 48 63 -2 0 
-19 5 63 -2 0 
-4 -20 63 -2 0 
-21 26 45 -8 63 -2 0 
-22 -6 -7 -23 -24 36 63 -2 0 
-4 -5 19 -7 63 -2 0 
-5 19 -12 63 -2 0 
-4 -6 -7 -8 63 -2 0 
-5 19 -4 63 -2 0 
-4 63 -2 0 
-25 55 63 -2 0 
-16 -26 21 45 63 -2 0 
-13 -4 -7 -27 63 -2 0 
-22 -9 -6 -7 -28 64 -4 0 
-3 65 -12 0 
-23 -7 -27 64 -4 0 
-27 -29 -30 65 -12 0 
-6 -3 65 -12 0 
-31 -32 -1 64 -4 0 
-1 -33 50 60 65 -12 0 
-20 64 -4 0 
-5 19 -12 -34 10 41 58 64 -4 0 
-12 -5 19 64 -4 0 
-35 65 -12 0 
-35 64 -4 0 
-20 65 -12 0 
-26 21 45 -7 -12 64 -4 0 
-26 21 45 -7 -4 65 -12 0 
-13 -22 -17 54 -9 -36 24 64 -4 0 
-9 -37 -4 65 -12 0 
-9 -38 53 -12 64 -4 0 
-9 -13 -4 65 -12 0 
-14 64 -4 0 
-39 18 48 -23 -40 64 -4 0 
-31 -1 65 -12 0 
-27 -41 10 34 58 64 -4 0 
-14 65 -12 0 
-16 -6 -12 64 -4 0 
-4 -23 65 -12 0 
-21 26 45 65 -12 0 
-23 64 -4 0 
-42 57 61 64 -4 0 
-43 64 -4 0 
-42 57 61 65 -12 0 
-43 65 -12 0 
-44 -5 19 -4 65 -12 0 
-5 19 -2 64 -4 0 
-45 21 26 -35 -8 -7 -28 64 -4 0 
-5 19 -12 64 -4 0 
-4 -1 65 -12 0 
-46 64 -4 0 
-47 65 -12 0 
-22 65 -12 0 
-25 55 64 -4 0 
-4 -20 65 -12 0 
-1 -7 64 -4 0 
-1 -7 65 -12 0 
-25 55 65 -12 0 
-5 19 -48 18 39 65 -12 0 
-5 19 -44 64 -4 0 
-12 -7 -5 19 64 -4 0 
-4 -5 19 -7 65 -12 0 
-16 63 -2 0 
-1 -6 -7 -12 64 -4 0 
-1 -6 -7 -4 65 -12 0 
-16 -7 -1 63 -2 0 
-4 -25 55 63 -2 0 
-17 54 64 -4 0 
-2 -5 19 64 -4 0 
-49 65 -12 0 
-6 -1 65 -12 0 
-2 -5 19 65 -12 0 
-26 21 45 -3 65 -12 0 
-12 -5 19 -6 -7 -28 64 -4 0 
-17 54 -12 -20 64 -4 0 
-4 -50 33 60 63 -2 0 
-4 -51 63 -2 0 
-28 63 -2 0 
-20 63 -2 0 
-43 63 -2 0 
-42 57 61 63 -2 0 
-26 21 45 -6 -7 -13 -4 63 -2 0 
-8 -28 63 -2 0 
-5 19 -4 -9 65 -12 0 
-26 21 45 64 -4 0 
-26 21 45 -52 64 -4 0 
-17 54 65 -12 0 
-26 21 45 65 -12 0 
-17 54 63 -2 0 
-53 38 -8 63 -2 0 
-16 -26 21 45 65 -12 0 
-16 -26 21 45 64 -4 0 
-12 -20 64 -4 0 
-54 17 65 -12 0 
-21 26 45 -5 19 -35 -8 -28 65 -12 0 
-23 -32 -4 65 -12 0 
-55 25 64 -4 0 
-23 -37 -12 64 -4 0 
-56 -57 42 61 65 -12 0 
-13 -1 64 -4 0 
-4 -50 33 60 65 -12 0 
-12 -58 10 34 41 64 -4 0 
-4 -59 65 -12 0 
-4 -23 -27 -60 33 50 65 -12 0 
-4 -23 -33 50 60 65 -12 0 
-45 21 26 -28 64 -4 0 
-8 63 -2 0 
-7 -1 -27 63 -2 0 
-5 19 -48 18 39 63 -2 0 
-1 65 -12 0 
-7 -1 63 -2 0 
-61 42 57 63 -2 0 
-6 -1 -23 -62 63 -2 0 
-13 -1 -51 63 -2 0 
